<number of tasks>
20

<cycle time>
1000

<order strength>
0,184


<task times>
1 251
2 353
3 146
4 63
5 154
6 144
7 43
8 176
9 141
10 41
11 26
12 48
13 209
14 74
15 298
16 221
17 216
18 200
19 96
20 23

<precedence relations>
3,6
4,8
5,7
5,9
6,11
6,12
7,10
7,13
10,16
10,17
11,15
12,14
12,18
15,20
18,19

<end>
